%% http://eclipse.crosscoreop.com/eclipse/examples/nono.ecl.txt
%% % Problem n5
%% fz: < 2 sec
rows = 10;
row_rule_len = 2;
row_rules = array2d(1..rows, 1..row_rule_len,
   [
    0,3,
    0,3,
    0,1,
    0,3,
    0,6,
    0,3, 
    0,3,
    3,3,
    2,2,
    2,1,
   ]);

cols = 10;
col_rule_len = 2;
col_rules = array2d(1..cols, 1..col_rule_len,
   [
    0,1,
    1,2,
    1,2,
    1,1,
    2,5,
    0,7,
    2,5,
    0,1,
    0,2,
    0,2
   ]);
